DIMACS_lns/graph-1000-316.col
p edge 1000 1781
e 1 187
e 1 406
e 1 171
e 1 549
e 1 472
e 1 898
e 4 629
e 4 675
e 4 323
e 5 411
e 5 549
e 5 89
e 5 498
e 5 30
e 5 559
e 5 662
e 5 531
e 5 622
e 6 420
e 6 140
e 6 869
e 6 613
e 6 9
e 6 105
e 7 784
e 7 150
e 7 888
e 7 364
e 7 934
e 7 976
e 7 167
e 8 988
e 8 212
e 8 950
e 8 603
e 9 47
e 9 185
e 9 635
e 9 196
e 9 294
e 10 365
e 10 447
e 10 997
e 10 159
e 10 880
e 12 861
e 12 169
e 12 669
e 12 678
e 13 185
e 13 637
e 13 99
e 13 498
e 13 996
e 13 376
e 14 99
e 14 120
e 14 20
e 14 46
e 14 688
e 16 885
e 16 840
e 16 173
e 16 863
e 16 525
e 16 558
e 17 100
e 17 423
e 17 821
e 17 726
e 17 181
e 17 710
e 17 656
e 18 147
e 18 165
e 18 673
e 20 145
e 20 120
e 20 732
e 21 861
e 21 178
e 21 835
e 21 83
e 22 472
e 22 303
e 22 260
e 24 469
e 24 924
e 24 687
e 24 956
e 24 511
e 27 258
e 27 890
e 27 630
e 28 617
e 28 472
e 28 318
e 28 538
e 28 641
e 29 43
e 29 611
e 29 759
e 29 305
e 29 67
e 29 404
e 30 931
e 30 289
e 30 691
e 32 195
e 32 497
e 32 180
e 32 430
e 32 524
e 32 230
e 33 503
e 33 679
e 33 830
e 33 46
e 33 148
e 34 710
e 34 600
e 34 947
e 34 438
e 34 966
e 35 784
e 35 478
e 35 493
e 35 211
e 36 933
e 36 947
e 36 598
e 36 155
e 37 125
e 37 162
e 37 566
e 37 776
e 38 215
e 38 400
e 38 397
e 38 722
e 38 499
e 38 172
e 39 626
e 39 227
e 39 722
e 39 817
e 41 373
e 41 200
e 41 259
e 41 254
e 42 89
e 42 581
e 42 340
e 42 432
e 43 278
e 43 906
e 43 405
e 43 845
e 43 301
e 44 512
e 44 163
e 44 555
e 46 326
e 46 954
e 46 211
e 47 225
e 47 460
e 47 654
e 47 921
e 47 234
e 47 761
e 47 309
e 47 416
e 47 417
e 47 499
e 50 422
e 50 949
e 50 763
e 50 743
e 50 295
e 51 470
e 51 541
e 51 288
e 51 213
e 51 356
e 51 477
e 52 789
e 52 940
e 52 470
e 52 257
e 52 744
e 53 875
e 53 234
e 53 125
e 53 690
e 53 568
e 54 125
e 54 154
e 54 525
e 54 690
e 56 788
e 56 575
e 56 309
e 56 784
e 57 851
e 57 376
e 57 671
e 57 472
e 57 327
e 58 392
e 58 167
e 58 629
e 58 722
e 58 759
e 58 758
e 58 917
e 59 522
e 59 434
e 59 411
e 59 534
e 59 330
e 59 225
e 63 933
e 63 977
e 63 420
e 64 326
e 64 513
e 64 965
e 64 849
e 64 641
e 64 156
e 65 305
e 65 323
e 65 918
e 65 955
e 65 391
e 66 431
e 66 660
e 66 507
e 67 908
e 67 520
e 67 653
e 70 357
e 70 961
e 70 237
e 71 651
e 71 677
e 71 520
e 71 630
e 71 892
e 72 132
e 72 194
e 72 119
e 74 332
e 74 707
e 74 576
e 74 558
e 75 116
e 75 245
e 75 250
e 75 938
e 75 259
e 75 598
e 75 956
e 75 686
e 77 610
e 77 765
e 77 589
e 79 525
e 79 230
e 79 237
e 79 999
e 79 909
e 79 399
e 79 602
e 80 101
e 80 597
e 80 123
e 82 356
e 82 162
e 82 537
e 82 259
e 82 850
e 82 231
e 82 447
e 83 880
e 83 260
e 83 585
e 83 524
e 84 410
e 84 626
e 84 696
e 85 215
e 85 992
e 85 175
e 85 159
e 85 929
e 86 218
e 86 167
e 86 511
e 86 833
e 87 635
e 87 842
e 87 443
e 89 467
e 89 936
e 89 764
e 89 507
e 89 593
e 89 756
e 89 721
e 89 660
e 89 291
e 90 374
e 90 725
e 90 979
e 90 194
e 90 235
e 90 505
e 92 410
e 92 325
e 92 507
e 92 614
e 92 165
e 96 507
e 96 640
e 96 159
e 96 693
e 96 218
e 96 918
e 96 132
e 97 946
e 97 953
e 97 976
e 97 402
e 99 330
e 99 379
e 100 210
e 100 304
e 100 990
e 100 865
e 101 896
e 101 846
e 105 172
e 105 962
e 105 273
e 108 898
e 108 804
e 108 605
e 109 863
e 109 628
e 109 140
e 109 558
e 110 380
e 110 387
e 110 481
e 110 913
e 111 996
e 111 285
e 111 886
e 111 305
e 111 904
e 112 558
e 112 754
e 112 344
e 112 625
e 113 156
e 113 832
e 113 616
e 113 822
e 113 856
e 113 140
e 114 759
e 114 968
e 114 804
e 114 776
e 115 534
e 115 932
e 115 641
e 115 285
e 115 806
e 115 433
e 116 566
e 116 402
e 116 315
e 116 480
e 116 639
e 117 441
e 117 961
e 117 531
e 117 690
e 117 619
e 117 434
e 117 409
e 117 992
e 117 276
e 119 839
e 119 940
e 119 379
e 119 572
e 119 752
e 119 248
e 119 433
e 120 473
e 120 458
e 120 650
e 121 482
e 121 572
e 121 976
e 121 365
e 123 417
e 123 421
e 123 416
e 123 497
e 123 334
e 123 928
e 124 892
e 124 186
e 124 546
e 125 365
e 125 454
e 125 309
e 126 634
e 126 885
e 126 496
e 126 604
e 126 433
e 126 421
e 126 527
e 127 869
e 127 970
e 127 856
e 128 746
e 128 809
e 128 613
e 128 975
e 128 806
e 128 869
e 128 329
e 129 704
e 129 554
e 129 197
e 132 561
e 132 744
e 132 898
e 132 873
e 132 545
e 132 532
e 132 626
e 133 290
e 133 999
e 133 917
e 133 397
e 133 978
e 133 351
e 133 400
e 134 806
e 134 297
e 134 496
e 134 256
e 134 148
e 134 694
e 135 823
e 135 959
e 135 602
e 135 308
e 137 344
e 137 201
e 137 285
e 137 515
e 138 180
e 138 990
e 138 296
e 138 996
e 139 697
e 139 334
e 139 183
e 139 904
e 140 449
e 140 760
e 140 206
e 141 962
e 141 610
e 141 328
e 141 223
e 141 188
e 141 658
e 143 369
e 143 692
e 143 804
e 143 899
e 143 603
e 143 558
e 144 554
e 144 637
e 144 947
e 144 267
e 145 610
e 145 247
e 146 979
e 146 153
e 146 197
e 147 209
e 147 780
e 147 616
e 147 866
e 147 279
e 148 364
e 148 560
e 150 177
e 150 277
e 150 953
e 150 549
e 150 791
e 150 481
e 151 430
e 151 254
e 151 316
e 151 739
e 151 168
e 153 997
e 153 687
e 154 241
e 154 662
e 155 735
e 155 255
e 155 950
e 156 527
e 156 290
e 159 949
e 159 203
e 162 986
e 162 929
e 162 786
e 162 429
e 163 598
e 163 585
e 165 372
e 165 597
e 165 963
e 165 534
e 165 812
e 165 786
e 167 638
e 167 737
e 168 604
e 168 573
e 168 830
e 168 733
e 168 853
e 168 609
e 169 325
e 169 742
e 169 587
e 169 839
e 171 342
e 171 650
e 171 708
e 171 887
e 172 357
e 172 443
e 172 402
e 172 876
e 172 475
e 172 654
e 172 760
e 173 986
e 173 995
e 174 459
e 174 605
e 174 750
e 174 662
e 174 524
e 175 534
e 175 903
e 177 259
e 177 460
e 178 840
e 178 276
e 178 279
e 178 764
e 180 921
e 180 696
e 181 335
e 181 243
e 181 250
e 183 899
e 183 597
e 183 226
e 183 887
e 183 623
e 184 707
e 184 720
e 184 414
e 184 894
e 184 653
e 185 418
e 185 549
e 185 856
e 185 319
e 185 222
e 186 217
e 186 688
e 187 752
e 187 617
e 188 628
e 188 480
e 188 538
e 188 449
e 188 787
e 190 443
e 190 792
e 190 608
e 191 417
e 191 800
e 191 998
e 191 920
e 193 341
e 193 247
e 193 843
e 193 804
e 193 400
e 194 752
e 194 803
e 194 421
e 194 885
e 194 809
e 195 499
e 195 748
e 196 881
e 196 573
e 196 273
e 196 984
e 196 479
e 196 505
e 197 380
e 198 294
e 198 275
e 198 654
e 198 270
e 199 819
e 199 727
e 199 839
e 200 786
e 200 293
e 201 534
e 201 483
e 201 454
e 201 623
e 201 336
e 202 370
e 202 452
e 202 753
e 203 330
e 203 379
e 203 381
e 203 825
e 203 452
e 203 598
e 203 524
e 205 472
e 205 425
e 205 273
e 205 212
e 205 836
e 206 782
e 206 541
e 208 683
e 208 741
e 208 232
e 209 994
e 209 720
e 209 578
e 210 995
e 210 431
e 210 825
e 211 523
e 211 687
e 211 965
e 212 220
e 212 629
e 213 344
e 213 307
e 213 383
e 213 468
e 215 820
e 215 451
e 215 638
e 215 964
e 215 573
e 217 698
e 217 583
e 217 328
e 217 972
e 217 236
e 218 849
e 218 227
e 218 965
e 218 549
e 220 710
e 220 725
e 221 505
e 221 349
e 221 941
e 221 350
e 221 572
e 221 878
e 221 959
e 222 752
e 222 377
e 222 587
e 222 834
e 222 725
e 222 343
e 223 908
e 223 609
e 225 562
e 225 486
e 225 750
e 225 856
e 226 418
e 226 954
e 226 503
e 226 751
e 226 850
e 227 975
e 227 701
e 230 839
e 230 366
e 230 800
e 230 334
e 230 730
e 231 493
e 231 881
e 232 487
e 232 908
e 232 759
e 232 613
e 233 286
e 233 635
e 233 707
e 233 337
e 233 986
e 233 832
e 234 835
e 234 679
e 234 859
e 234 535
e 234 532
e 234 920
e 235 881
e 235 840
e 235 315
e 236 692
e 236 560
e 236 975
e 237 448
e 238 896
e 238 353
e 238 525
e 241 823
e 241 875
e 241 312
e 241 346
e 241 343
e 241 363
e 243 562
e 243 698
e 243 507
e 245 858
e 245 488
e 245 376
e 245 790
e 247 952
e 247 920
e 248 467
e 248 431
e 250 369
e 250 608
e 250 660
e 254 502
e 255 266
e 255 327
e 256 441
e 256 522
e 256 387
e 257 610
e 257 363
e 257 659
e 258 701
e 258 650
e 258 997
e 258 273
e 258 594
e 258 667
e 258 520
e 259 697
e 259 648
e 259 464
e 260 689
e 260 755
e 260 858
e 266 417
e 266 707
e 267 572
e 267 390
e 267 966
e 267 459
e 267 340
e 268 659
e 268 473
e 268 944
e 268 988
e 270 944
e 270 963
e 273 861
e 273 751
e 273 606
e 273 844
e 275 913
e 275 606
e 275 327
e 276 937
e 276 715
e 277 674
e 277 821
e 278 341
e 278 332
e 279 305
e 279 480
e 279 833
e 279 410
e 279 447
e 280 769
e 280 475
e 280 548
e 283 555
e 283 286
e 283 871
e 283 593
e 284 853
e 284 767
e 284 468
e 285 868
e 285 900
e 285 402
e 285 634
e 285 943
e 286 288
e 286 967
e 288 692
e 289 735
e 289 497
e 290 555
e 290 840
e 290 680
e 290 791
e 291 909
e 291 562
e 291 942
e 293 382
e 293 838
e 293 865
e 293 916
e 293 470
e 294 613
e 294 306
e 294 606
e 295 553
e 295 358
e 296 686
e 296 568
e 296 911
e 297 325
e 297 981
e 297 548
e 297 413
e 299 660
e 299 928
e 299 497
e 299 769
e 299 584
e 300 322
e 300 457
e 300 609
e 300 814
e 300 805
e 301 339
e 301 559
e 303 866
e 303 559
e 303 984
e 304 689
e 304 861
e 304 796
e 305 808
e 305 369
e 305 715
e 305 788
e 306 493
e 306 327
e 307 443
e 307 654
e 307 393
e 307 356
e 307 505
e 308 625
e 308 324
e 308 919
e 309 865
e 309 887
e 311 381
e 311 452
e 311 648
e 312 904
e 312 846
e 315 683
e 315 402
e 315 420
e 316 351
e 316 701
e 316 333
e 316 712
e 316 326
e 317 392
e 317 954
e 317 974
e 317 410
e 317 481
e 318 358
e 318 458
e 318 876
e 319 959
e 319 621
e 319 460
e 321 919
e 321 896
e 321 326
e 322 716
e 322 953
e 323 452
e 324 658
e 324 961
e 324 905
e 324 906
e 325 632
e 325 944
e 325 658
e 325 542
e 326 678
e 326 805
e 326 881
e 327 751
e 327 925
e 328 921
e 328 423
e 328 335
e 328 690
e 329 487
e 329 377
e 330 830
e 330 433
e 332 614
e 332 399
e 332 694
e 333 685
e 333 790
e 334 459
e 334 495
e 334 531
e 334 379
e 334 695
e 335 922
e 335 977
e 335 531
e 335 481
e 335 529
e 336 494
e 336 527
e 336 537
e 337 822
e 337 979
e 337 766
e 337 569
e 339 788
e 339 464
e 339 959
e 340 819
e 340 492
e 340 793
e 340 442
e 340 647
e 341 931
e 341 975
e 341 562
e 342 535
e 342 432
e 343 484
e 343 483
e 343 876
e 344 573
e 344 370
e 346 631
e 346 930
e 347 765
e 347 934
e 347 416
e 347 409
e 349 799
e 349 743
e 349 902
e 349 350
e 349 780
e 349 793
e 350 366
e 351 861
e 352 829
e 352 995
e 352 679
e 352 911
e 353 473
e 353 675
e 353 987
e 356 787
e 356 853
e 356 844
e 357 994
e 358 663
e 358 634
e 358 765
e 358 432
e 359 995
e 359 792
e 359 651
e 361 780
e 361 513
e 361 494
e 361 571
e 361 994
e 361 493
e 363 479
e 364 447
e 364 576
e 364 449
e 364 748
e 364 482
e 365 848
e 366 532
e 366 963
e 366 592
e 366 942
e 366 570
e 367 656
e 367 472
e 367 721
e 367 587
e 369 647
e 369 725
e 369 400
e 370 495
e 370 632
e 370 788
e 370 683
e 370 826
e 370 709
e 372 710
e 372 486
e 372 585
e 373 685
e 373 409
e 374 467
e 374 593
e 374 911
e 375 420
e 375 963
e 375 535
e 375 755
e 376 766
e 376 952
e 376 695
e 376 671
e 377 945
e 377 845
e 377 667
e 378 584
e 378 433
e 378 818
e 379 387
e 379 695
e 379 445
e 379 676
e 380 383
e 380 405
e 381 686
e 381 985
e 381 483
e 382 637
e 382 632
e 382 890
e 382 799
e 383 817
e 383 525
e 383 399
e 383 900
e 384 596
e 384 492
e 384 593
e 384 840
e 387 818
e 390 623
e 390 961
e 391 638
e 391 715
e 391 836
e 391 739
e 391 666
e 392 792
e 392 903
e 393 635
e 393 955
e 393 499
e 393 626
e 395 753
e 395 511
e 395 434
e 395 677
e 395 653
e 397 451
e 397 821
e 397 823
e 399 452
e 400 948
e 400 658
e 400 725
e 400 804
e 400 417
e 400 614
e 402 894
e 402 515
e 402 585
e 402 406
e 404 823
e 404 628
e 404 741
e 405 595
e 405 903
e 406 905
e 406 908
e 406 962
e 406 438
e 409 853
e 409 531
e 409 850
e 410 520
e 410 558
e 410 916
e 411 829
e 411 636
e 411 847
e 411 649
e 411 868
e 411 669
e 411 808
e 413 567
e 413 756
e 413 890
e 414 892
e 414 764
e 414 944
e 416 903
e 417 750
e 417 905
e 417 611
e 417 949
e 417 899
e 418 553
e 418 708
e 418 470
e 420 685
e 420 515
e 420 796
e 421 473
e 421 454
e 421 619
e 421 656
e 422 812
e 422 786
e 422 871
e 422 920
e 423 584
e 423 470
e 425 449
e 425 998
e 425 809
e 425 431
e 429 996
e 429 756
e 429 532
e 429 718
e 430 698
e 430 562
e 430 987
e 430 835
e 431 847
e 432 580
e 432 457
e 433 708
e 433 824
e 433 442
e 433 443
e 433 941
e 434 822
e 434 597
e 435 780
e 435 453
e 435 512
e 436 916
e 436 498
e 436 445
e 438 769
e 438 950
e 441 782
e 441 804
e 442 594
e 442 573
e 442 974
e 442 885
e 443 472
e 445 859
e 447 750
e 447 809
e 447 803
e 448 888
e 448 546
e 448 698
e 448 844
e 451 739
e 452 947
e 452 912
e 452 739
e 452 541
e 453 876
e 453 638
e 457 954
e 457 596
e 457 760
e 458 981
e 458 696
e 458 793
e 459 756
e 459 864
e 459 887
e 459 675
e 459 966
e 460 560
e 460 732
e 460 934
e 460 886
e 460 561
e 464 718
e 466 512
e 466 534
e 466 569
e 466 710
e 466 746
e 466 905
e 467 912
e 467 871
e 468 491
e 468 680
e 468 559
e 469 493
e 469 957
e 470 832
e 470 804
e 470 808
e 470 608
e 470 814
e 472 534
e 472 878
e 473 679
e 473 779
e 473 659
e 475 787
e 477 600
e 477 825
e 477 933
e 477 839
e 477 866
e 478 812
e 478 845
e 479 649
e 480 606
e 480 805
e 481 523
e 481 512
e 481 782
e 482 839
e 483 628
e 483 955
e 483 693
e 484 731
e 484 510
e 486 674
e 486 850
e 487 992
e 487 552
e 487 622
e 487 976
e 488 957
e 488 708
e 488 865
e 488 967
e 489 977
e 489 964
e 489 799
e 489 585
e 491 902
e 491 689
e 491 843
e 491 904
e 491 588
e 492 502
e 492 844
e 493 802
e 493 580
e 493 639
e 493 856
e 494 964
e 494 626
e 495 498
e 495 746
e 495 520
e 496 555
e 496 746
e 496 593
e 496 525
e 497 856
e 497 820
e 497 833
e 497 981
e 498 688
e 498 768
e 499 942
e 502 926
e 503 587
e 504 546
e 504 878
e 504 875
e 504 631
e 504 928
e 505 825
e 505 649
e 507 976
e 507 873
e 507 651
e 509 559
e 509 635
e 509 528
e 509 708
e 510 938
e 510 875
e 511 845
e 512 581
e 513 515
e 513 666
e 515 569
e 520 784
e 520 688
e 520 928
e 520 721
e 520 768
e 520 607
e 522 995
e 523 957
e 523 604
e 524 918
e 524 755
e 525 793
e 525 949
e 527 580
e 527 725
e 527 753
e 528 789
e 528 708
e 529 978
e 529 584
e 529 664
e 531 748
e 532 948
e 535 606
e 537 598
e 538 880
e 538 548
e 538 942
e 541 667
e 541 565
e 541 878
e 541 722
e 542 678
e 542 858
e 542 634
e 545 726
e 545 681
e 546 593
e 548 612
e 548 784
e 549 885
e 549 872
e 552 844
e 552 840
e 552 603
e 553 787
e 554 739
e 555 593
e 555 664
e 558 931
e 559 577
e 561 790
e 562 911
e 562 776
e 562 666
e 562 928
e 562 840
e 565 818
e 565 681
e 566 701
e 566 957
e 566 892
e 566 819
e 566 983
e 566 945
e 566 753
e 567 932
e 567 896
e 568 593
e 569 843
e 570 922
e 570 673
e 571 595
e 571 576
e 572 924
e 572 581
e 572 573
e 572 751
e 572 695
e 575 912
e 575 998
e 575 965
e 576 987
e 577 792
e 577 685
e 578 799
e 578 616
e 578 638
e 581 641
e 581 847
e 583 656
e 583 726
e 584 710
e 585 878
e 587 965
e 587 763
e 587 744
e 587 759
e 588 843
e 588 617
e 589 834
e 589 846
e 592 763
e 592 879
e 593 607
e 593 849
e 594 634
e 594 856
e 594 695
e 594 660
e 595 726
e 596 812
e 596 950
e 597 709
e 597 607
e 598 968
e 598 603
e 600 852
e 600 850
e 602 613
e 602 992
e 602 806
e 602 743
e 603 953
e 604 925
e 604 637
e 604 985
e 605 985
e 606 723
e 608 887
e 608 852
e 609 885
e 610 801
e 610 788
e 610 909
e 610 829
e 610 667
e 611 851
e 611 906
e 612 788
e 612 650
e 612 970
e 613 872
e 614 999
e 614 814
e 614 704
e 616 919
e 616 692
e 616 991
e 619 997
e 619 916
e 621 731
e 621 820
e 621 787
e 622 829
e 622 630
e 622 748
e 623 912
e 623 681
e 623 684
e 623 653
e 625 653
e 626 842
e 626 694
e 628 814
e 629 970
e 629 677
e 629 944
e 630 695
e 631 843
e 635 636
e 636 864
e 637 865
e 637 728
e 639 826
e 640 788
e 640 787
e 640 940
e 647 800
e 648 844
e 649 688
e 650 826
e 650 998
e 651 707
e 651 964
e 651 836
e 653 974
e 653 992
e 654 838
e 654 912
e 654 763
e 656 688
e 656 953
e 658 955
e 660 786
e 662 984
e 662 921
e 663 748
e 663 890
e 664 826
e 666 899
e 666 817
e 666 767
e 666 988
e 666 916
e 666 956
e 669 790
e 671 873
e 671 919
e 673 894
e 673 906
e 674 752
e 675 842
e 676 850
e 676 727
e 676 824
e 676 974
e 679 839
e 679 776
e 680 739
e 681 802
e 681 825
e 683 818
e 684 835
e 684 716
e 684 943
e 684 728
e 686 820
e 686 825
e 687 848
e 688 917
e 688 697
e 688 824
e 689 943
e 689 869
e 689 733
e 691 824
e 691 700
e 692 742
e 693 844
e 693 868
e 694 759
e 700 763
e 700 832
e 704 957
e 707 948
e 708 832
e 709 742
e 709 737
e 710 886
e 712 830
e 712 824
e 716 979
e 718 752
e 720 936
e 722 868
e 723 932
e 723 814
e 725 950
e 726 984
e 727 930
e 727 782
e 728 925
e 728 988
e 730 926
e 730 869
e 731 823
e 732 880
e 733 959
e 733 947
e 733 984
e 733 872
e 735 763
e 735 809
e 737 847
e 737 744
e 739 834
e 739 796
e 739 760
e 741 800
e 742 944
e 742 972
e 742 838
e 743 936
e 743 913
e 743 758
e 744 802
e 744 842
e 744 945
e 744 956
e 748 801
e 750 898
e 751 896
e 751 948
e 754 928
e 754 911
e 755 856
e 756 909
e 758 944
e 758 822
e 759 912
e 759 876
e 760 843
e 761 843
e 761 920
e 763 999
e 763 976
e 765 992
e 765 940
e 766 997
e 767 829
e 767 809
e 767 801
e 767 824
e 768 863
e 773 970
e 773 818
e 773 972
e 776 880
e 778 983
e 778 926
e 778 924
e 779 803
e 779 863
e 780 908
e 781 818
e 781 792
e 781 970
e 781 904
e 781 848
e 784 894
e 784 790
e 787 823
e 789 975
e 791 845
e 796 823
e 800 900
e 802 836
e 804 952
e 804 928
e 804 991
e 805 911
e 805 975
e 806 906
e 806 809
e 808 974
e 812 986
e 819 963
e 822 963
e 822 864
e 825 991
e 826 851
e 829 926
e 830 979
e 832 968
e 832 904
e 832 946
e 834 839
e 835 940
e 838 946
e 839 984
e 843 959
e 844 954
e 846 991
e 847 934
e 850 885
e 851 964
e 851 872
e 852 979
e 856 972
e 859 885
e 859 956
e 861 950
e 864 988
e 869 986
e 869 976
e 876 975
e 876 994
e 876 924
e 879 921
e 879 968
e 881 998
e 881 964
e 881 933
e 886 932
e 886 922
e 887 953
e 887 909
e 887 912
e 888 990
e 892 928
e 892 953
e 899 990
e 900 998
e 902 983
e 911 967
e 912 942
e 913 946
e 918 956
e 918 921
e 919 995
e 929 948
e 930 970
e 931 938
e 937 964
e 937 983
e 937 997
e 940 941
e 940 950
e 940 949
e 949 963
e 952 959
e 961 996
e 978 986
