txt_Ins/graph-1000-316.txt
n 1000
e 0 186
e 0 405
e 0 170
e 0 548
e 0 471
e 0 897
e 3 628
e 3 674
e 3 322
e 4 410
e 4 548
e 4 88
e 4 497
e 4 29
e 4 558
e 4 661
e 4 530
e 4 621
e 5 419
e 5 139
e 5 868
e 5 612
e 5 8
e 5 104
e 6 783
e 6 149
e 6 887
e 6 363
e 6 933
e 6 975
e 6 166
e 7 987
e 7 211
e 7 949
e 7 602
e 8 46
e 8 184
e 8 634
e 8 195
e 8 293
e 9 364
e 9 446
e 9 996
e 9 158
e 9 879
e 11 860
e 11 168
e 11 668
e 11 677
e 12 184
e 12 636
e 12 98
e 12 497
e 12 995
e 12 375
e 13 98
e 13 119
e 13 19
e 13 45
e 13 687
e 15 884
e 15 839
e 15 172
e 15 862
e 15 524
e 15 557
e 16 99
e 16 422
e 16 820
e 16 725
e 16 180
e 16 709
e 16 655
e 17 146
e 17 164
e 17 672
e 19 144
e 19 119
e 19 731
e 20 860
e 20 177
e 20 834
e 20 82
e 21 471
e 21 302
e 21 259
e 23 468
e 23 923
e 23 686
e 23 955
e 23 510
e 26 257
e 26 889
e 26 629
e 27 616
e 27 471
e 27 317
e 27 537
e 27 640
e 28 42
e 28 610
e 28 758
e 28 304
e 28 66
e 28 403
e 29 930
e 29 288
e 29 690
e 31 194
e 31 496
e 31 179
e 31 429
e 31 523
e 31 229
e 32 502
e 32 678
e 32 829
e 32 45
e 32 147
e 33 709
e 33 599
e 33 946
e 33 437
e 33 965
e 34 783
e 34 477
e 34 492
e 34 210
e 35 932
e 35 946
e 35 597
e 35 154
e 36 124
e 36 161
e 36 565
e 36 775
e 37 214
e 37 399
e 37 396
e 37 721
e 37 498
e 37 171
e 38 625
e 38 226
e 38 721
e 38 816
e 40 372
e 40 199
e 40 258
e 40 253
e 41 88
e 41 580
e 41 339
e 41 431
e 42 277
e 42 905
e 42 404
e 42 844
e 42 300
e 43 511
e 43 162
e 43 554
e 45 325
e 45 953
e 45 210
e 46 224
e 46 459
e 46 653
e 46 920
e 46 233
e 46 760
e 46 308
e 46 415
e 46 416
e 46 498
e 49 421
e 49 948
e 49 762
e 49 742
e 49 294
e 50 469
e 50 540
e 50 287
e 50 212
e 50 355
e 50 476
e 51 788
e 51 939
e 51 469
e 51 256
e 51 743
e 52 874
e 52 233
e 52 124
e 52 689
e 52 567
e 53 124
e 53 153
e 53 524
e 53 689
e 55 787
e 55 574
e 55 308
e 55 783
e 56 850
e 56 375
e 56 670
e 56 471
e 56 326
e 57 391
e 57 166
e 57 628
e 57 721
e 57 758
e 57 757
e 57 916
e 58 521
e 58 433
e 58 410
e 58 533
e 58 329
e 58 224
e 62 932
e 62 976
e 62 419
e 63 325
e 63 512
e 63 964
e 63 848
e 63 640
e 63 155
e 64 304
e 64 322
e 64 917
e 64 954
e 64 390
e 65 430
e 65 659
e 65 506
e 66 907
e 66 519
e 66 652
e 69 356
e 69 960
e 69 236
e 70 650
e 70 676
e 70 519
e 70 629
e 70 891
e 71 131
e 71 193
e 71 118
e 73 331
e 73 706
e 73 575
e 73 557
e 74 115
e 74 244
e 74 249
e 74 937
e 74 258
e 74 597
e 74 955
e 74 685
e 76 609
e 76 764
e 76 588
e 78 524
e 78 229
e 78 236
e 78 998
e 78 908
e 78 398
e 78 601
e 79 100
e 79 596
e 79 122
e 81 355
e 81 161
e 81 536
e 81 258
e 81 849
e 81 230
e 81 446
e 82 879
e 82 259
e 82 584
e 82 523
e 83 409
e 83 625
e 83 695
e 84 214
e 84 991
e 84 174
e 84 158
e 84 928
e 85 217
e 85 166
e 85 510
e 85 832
e 86 634
e 86 841
e 86 442
e 88 466
e 88 935
e 88 763
e 88 506
e 88 592
e 88 755
e 88 720
e 88 659
e 88 290
e 89 373
e 89 724
e 89 978
e 89 193
e 89 234
e 89 504
e 91 409
e 91 324
e 91 506
e 91 613
e 91 164
e 95 506
e 95 639
e 95 158
e 95 692
e 95 217
e 95 917
e 95 131
e 96 945
e 96 952
e 96 975
e 96 401
e 98 329
e 98 378
e 99 209
e 99 303
e 99 989
e 99 864
e 100 895
e 100 845
e 104 171
e 104 961
e 104 272
e 107 897
e 107 803
e 107 604
e 108 862
e 108 627
e 108 139
e 108 557
e 109 379
e 109 386
e 109 480
e 109 912
e 110 995
e 110 284
e 110 885
e 110 304
e 110 903
e 111 557
e 111 753
e 111 343
e 111 624
e 112 155
e 112 831
e 112 615
e 112 821
e 112 855
e 112 139
e 113 758
e 113 967
e 113 803
e 113 775
e 114 533
e 114 931
e 114 640
e 114 284
e 114 805
e 114 432
e 115 565
e 115 401
e 115 314
e 115 479
e 115 638
e 116 440
e 116 960
e 116 530
e 116 689
e 116 618
e 116 433
e 116 408
e 116 991
e 116 275
e 118 838
e 118 939
e 118 378
e 118 571
e 118 751
e 118 247
e 118 432
e 119 472
e 119 457
e 119 649
e 120 481
e 120 571
e 120 975
e 120 364
e 122 416
e 122 420
e 122 415
e 122 496
e 122 333
e 122 927
e 123 891
e 123 185
e 123 545
e 124 364
e 124 453
e 124 308
e 125 633
e 125 884
e 125 495
e 125 603
e 125 432
e 125 420
e 125 526
e 126 868
e 126 969
e 126 855
e 127 745
e 127 808
e 127 612
e 127 974
e 127 805
e 127 868
e 127 328
e 128 703
e 128 553
e 128 196
e 131 560
e 131 743
e 131 897
e 131 872
e 131 544
e 131 531
e 131 625
e 132 289
e 132 998
e 132 916
e 132 396
e 132 977
e 132 350
e 132 399
e 133 805
e 133 296
e 133 495
e 133 255
e 133 147
e 133 693
e 134 822
e 134 958
e 134 601
e 134 307
e 136 343
e 136 200
e 136 284
e 136 514
e 137 179
e 137 989
e 137 295
e 137 995
e 138 696
e 138 333
e 138 182
e 138 903
e 139 448
e 139 759
e 139 205
e 140 961
e 140 609
e 140 327
e 140 222
e 140 187
e 140 657
e 142 368
e 142 691
e 142 803
e 142 898
e 142 602
e 142 557
e 143 553
e 143 636
e 143 946
e 143 266
e 144 609
e 144 246
e 145 978
e 145 152
e 145 196
e 146 208
e 146 779
e 146 615
e 146 865
e 146 278
e 147 363
e 147 559
e 149 176
e 149 276
e 149 952
e 149 548
e 149 790
e 149 480
e 150 429
e 150 253
e 150 315
e 150 738
e 150 167
e 152 996
e 152 686
e 153 240
e 153 661
e 154 734
e 154 254
e 154 949
e 155 526
e 155 289
e 158 948
e 158 202
e 161 985
e 161 928
e 161 785
e 161 428
e 162 597
e 162 584
e 164 371
e 164 596
e 164 962
e 164 533
e 164 811
e 164 785
e 166 637
e 166 736
e 167 603
e 167 572
e 167 829
e 167 732
e 167 852
e 167 608
e 168 324
e 168 741
e 168 586
e 168 838
e 170 341
e 170 649
e 170 707
e 170 886
e 171 356
e 171 442
e 171 401
e 171 875
e 171 474
e 171 653
e 171 759
e 172 985
e 172 994
e 173 458
e 173 604
e 173 749
e 173 661
e 173 523
e 174 533
e 174 902
e 176 258
e 176 459
e 177 839
e 177 275
e 177 278
e 177 763
e 179 920
e 179 695
e 180 334
e 180 242
e 180 249
e 182 898
e 182 596
e 182 225
e 182 886
e 182 622
e 183 706
e 183 719
e 183 413
e 183 893
e 183 652
e 184 417
e 184 548
e 184 855
e 184 318
e 184 221
e 185 216
e 185 687
e 186 751
e 186 616
e 187 627
e 187 479
e 187 537
e 187 448
e 187 786
e 189 442
e 189 791
e 189 607
e 190 416
e 190 799
e 190 997
e 190 919
e 192 340
e 192 246
e 192 842
e 192 803
e 192 399
e 193 751
e 193 802
e 193 420
e 193 884
e 193 808
e 194 498
e 194 747
e 195 880
e 195 572
e 195 272
e 195 983
e 195 478
e 195 504
e 196 379
e 197 293
e 197 274
e 197 653
e 197 269
e 198 818
e 198 726
e 198 838
e 199 785
e 199 292
e 200 533
e 200 482
e 200 453
e 200 622
e 200 335
e 201 369
e 201 451
e 201 752
e 202 329
e 202 378
e 202 380
e 202 824
e 202 451
e 202 597
e 202 523
e 204 471
e 204 424
e 204 272
e 204 211
e 204 835
e 205 781
e 205 540
e 207 682
e 207 740
e 207 231
e 208 993
e 208 719
e 208 577
e 209 994
e 209 430
e 209 824
e 210 522
e 210 686
e 210 964
e 211 219
e 211 628
e 212 343
e 212 306
e 212 382
e 212 467
e 214 819
e 214 450
e 214 637
e 214 963
e 214 572
e 216 697
e 216 582
e 216 327
e 216 971
e 216 235
e 217 848
e 217 226
e 217 964
e 217 548
e 219 709
e 219 724
e 220 504
e 220 348
e 220 940
e 220 349
e 220 571
e 220 877
e 220 958
e 221 751
e 221 376
e 221 586
e 221 833
e 221 724
e 221 342
e 222 907
e 222 608
e 224 561
e 224 485
e 224 749
e 224 855
e 225 417
e 225 953
e 225 502
e 225 750
e 225 849
e 226 974
e 226 700
e 229 838
e 229 365
e 229 799
e 229 333
e 229 729
e 230 492
e 230 880
e 231 486
e 231 907
e 231 758
e 231 612
e 232 285
e 232 634
e 232 706
e 232 336
e 232 985
e 232 831
e 233 834
e 233 678
e 233 858
e 233 534
e 233 531
e 233 919
e 234 880
e 234 839
e 234 314
e 235 691
e 235 559
e 235 974
e 236 447
e 237 895
e 237 352
e 237 524
e 240 822
e 240 874
e 240 311
e 240 345
e 240 342
e 240 362
e 242 561
e 242 697
e 242 506
e 244 857
e 244 487
e 244 375
e 244 789
e 246 951
e 246 919
e 247 466
e 247 430
e 249 368
e 249 607
e 249 659
e 253 501
e 254 265
e 254 326
e 255 440
e 255 521
e 255 386
e 256 609
e 256 362
e 256 658
e 257 700
e 257 649
e 257 996
e 257 272
e 257 593
e 257 666
e 257 519
e 258 696
e 258 647
e 258 463
e 259 688
e 259 754
e 259 857
e 265 416
e 265 706
e 266 571
e 266 389
e 266 965
e 266 458
e 266 339
e 267 658
e 267 472
e 267 943
e 267 987
e 269 943
e 269 962
e 272 860
e 272 750
e 272 605
e 272 843
e 274 912
e 274 605
e 274 326
e 275 936
e 275 714
e 276 673
e 276 820
e 277 340
e 277 331
e 278 304
e 278 479
e 278 832
e 278 409
e 278 446
e 279 768
e 279 474
e 279 547
e 282 554
e 282 285
e 282 870
e 282 592
e 283 852
e 283 766
e 283 467
e 284 867
e 284 899
e 284 401
e 284 633
e 284 942
e 285 287
e 285 966
e 287 691
e 288 734
e 288 496
e 289 554
e 289 839
e 289 679
e 289 790
e 290 908
e 290 561
e 290 941
e 292 381
e 292 837
e 292 864
e 292 915
e 292 469
e 293 612
e 293 305
e 293 605
e 294 552
e 294 357
e 295 685
e 295 567
e 295 910
e 296 324
e 296 980
e 296 547
e 296 412
e 298 659
e 298 927
e 298 496
e 298 768
e 298 583
e 299 321
e 299 456
e 299 608
e 299 813
e 299 804
e 300 338
e 300 558
e 302 865
e 302 558
e 302 983
e 303 688
e 303 860
e 303 795
e 304 807
e 304 368
e 304 714
e 304 787
e 305 492
e 305 326
e 306 442
e 306 653
e 306 392
e 306 355
e 306 504
e 307 624
e 307 323
e 307 918
e 308 864
e 308 886
e 310 380
e 310 451
e 310 647
e 311 903
e 311 845
e 314 682
e 314 401
e 314 419
e 315 350
e 315 700
e 315 332
e 315 711
e 315 325
e 316 391
e 316 953
e 316 973
e 316 409
e 316 480
e 317 357
e 317 457
e 317 875
e 318 958
e 318 620
e 318 459
e 320 918
e 320 895
e 320 325
e 321 715
e 321 952
e 322 451
e 323 657
e 323 960
e 323 904
e 323 905
e 324 631
e 324 943
e 324 657
e 324 541
e 325 677
e 325 804
e 325 880
e 326 750
e 326 924
e 327 920
e 327 422
e 327 334
e 327 689
e 328 486
e 328 376
e 329 829
e 329 432
e 331 613
e 331 398
e 331 693
e 332 684
e 332 789
e 333 458
e 333 494
e 333 530
e 333 378
e 333 694
e 334 921
e 334 976
e 334 530
e 334 480
e 334 528
e 335 493
e 335 526
e 335 536
e 336 821
e 336 978
e 336 765
e 336 568
e 338 787
e 338 463
e 338 958
e 339 818
e 339 491
e 339 792
e 339 441
e 339 646
e 340 930
e 340 974
e 340 561
e 341 534
e 341 431
e 342 483
e 342 482
e 342 875
e 343 572
e 343 369
e 345 630
e 345 929
e 346 764
e 346 933
e 346 415
e 346 408
e 348 798
e 348 742
e 348 901
e 348 349
e 348 779
e 348 792
e 349 365
e 350 860
e 351 828
e 351 994
e 351 678
e 351 910
e 352 472
e 352 674
e 352 986
e 355 786
e 355 852
e 355 843
e 356 993
e 357 662
e 357 633
e 357 764
e 357 431
e 358 994
e 358 791
e 358 650
e 360 779
e 360 512
e 360 493
e 360 570
e 360 993
e 360 492
e 362 478
e 363 446
e 363 575
e 363 448
e 363 747
e 363 481
e 364 847
e 365 531
e 365 962
e 365 591
e 365 941
e 365 569
e 366 655
e 366 471
e 366 720
e 366 586
e 368 646
e 368 724
e 368 399
e 369 494
e 369 631
e 369 787
e 369 682
e 369 825
e 369 708
e 371 709
e 371 485
e 371 584
e 372 684
e 372 408
e 373 466
e 373 592
e 373 910
e 374 419
e 374 962
e 374 534
e 374 754
e 375 765
e 375 951
e 375 694
e 375 670
e 376 944
e 376 844
e 376 666
e 377 583
e 377 432
e 377 817
e 378 386
e 378 694
e 378 444
e 378 675
e 379 382
e 379 404
e 380 685
e 380 984
e 380 482
e 381 636
e 381 631
e 381 889
e 381 798
e 382 816
e 382 524
e 382 398
e 382 899
e 383 595
e 383 491
e 383 592
e 383 839
e 386 817
e 389 622
e 389 960
e 390 637
e 390 714
e 390 835
e 390 738
e 390 665
e 391 791
e 391 902
e 392 634
e 392 954
e 392 498
e 392 625
e 394 752
e 394 510
e 394 433
e 394 676
e 394 652
e 396 450
e 396 820
e 396 822
e 398 451
e 399 947
e 399 657
e 399 724
e 399 803
e 399 416
e 399 613
e 401 893
e 401 514
e 401 584
e 401 405
e 403 822
e 403 627
e 403 740
e 404 594
e 404 902
e 405 904
e 405 907
e 405 961
e 405 437
e 408 852
e 408 530
e 408 849
e 409 519
e 409 557
e 409 915
e 410 828
e 410 635
e 410 846
e 410 648
e 410 867
e 410 668
e 410 807
e 412 566
e 412 755
e 412 889
e 413 891
e 413 763
e 413 943
e 415 902
e 416 749
e 416 904
e 416 610
e 416 948
e 416 898
e 417 552
e 417 707
e 417 469
e 419 684
e 419 514
e 419 795
e 420 472
e 420 453
e 420 618
e 420 655
e 421 811
e 421 785
e 421 870
e 421 919
e 422 583
e 422 469
e 424 448
e 424 997
e 424 808
e 424 430
e 428 995
e 428 755
e 428 531
e 428 717
e 429 697
e 429 561
e 429 986
e 429 834
e 430 846
e 431 579
e 431 456
e 432 707
e 432 823
e 432 441
e 432 442
e 432 940
e 433 821
e 433 596
e 434 779
e 434 452
e 434 511
e 435 915
e 435 497
e 435 444
e 437 768
e 437 949
e 440 781
e 440 803
e 441 593
e 441 572
e 441 973
e 441 884
e 442 471
e 444 858
e 446 749
e 446 808
e 446 802
e 447 887
e 447 545
e 447 697
e 447 843
e 450 738
e 451 946
e 451 911
e 451 738
e 451 540
e 452 875
e 452 637
e 456 953
e 456 595
e 456 759
e 457 980
e 457 695
e 457 792
e 458 755
e 458 863
e 458 886
e 458 674
e 458 965
e 459 559
e 459 731
e 459 933
e 459 885
e 459 560
e 463 717
e 465 511
e 465 533
e 465 568
e 465 709
e 465 745
e 465 904
e 466 911
e 466 870
e 467 490
e 467 679
e 467 558
e 468 492
e 468 956
e 469 831
e 469 803
e 469 807
e 469 607
e 469 813
e 471 533
e 471 877
e 472 678
e 472 778
e 472 658
e 474 786
e 476 599
e 476 824
e 476 932
e 476 838
e 476 865
e 477 811
e 477 844
e 478 648
e 479 605
e 479 804
e 480 522
e 480 511
e 480 781
e 481 838
e 482 627
e 482 954
e 482 692
e 483 730
e 483 509
e 485 673
e 485 849
e 486 991
e 486 551
e 486 621
e 486 975
e 487 956
e 487 707
e 487 864
e 487 966
e 488 976
e 488 963
e 488 798
e 488 584
e 490 901
e 490 688
e 490 842
e 490 903
e 490 587
e 491 501
e 491 843
e 492 801
e 492 579
e 492 638
e 492 855
e 493 963
e 493 625
e 494 497
e 494 745
e 494 519
e 495 554
e 495 745
e 495 592
e 495 524
e 496 855
e 496 819
e 496 832
e 496 980
e 497 687
e 497 767
e 498 941
e 501 925
e 502 586
e 503 545
e 503 877
e 503 874
e 503 630
e 503 927
e 504 824
e 504 648
e 506 975
e 506 872
e 506 650
e 508 558
e 508 634
e 508 527
e 508 707
e 509 937
e 509 874
e 510 844
e 511 580
e 512 514
e 512 665
e 514 568
e 519 783
e 519 687
e 519 927
e 519 720
e 519 767
e 519 606
e 521 994
e 522 956
e 522 603
e 523 917
e 523 754
e 524 792
e 524 948
e 526 579
e 526 724
e 526 752
e 527 788
e 527 707
e 528 977
e 528 583
e 528 663
e 530 747
e 531 947
e 534 605
e 536 597
e 537 879
e 537 547
e 537 941
e 540 666
e 540 564
e 540 877
e 540 721
e 541 677
e 541 857
e 541 633
e 544 725
e 544 680
e 545 592
e 547 611
e 547 783
e 548 884
e 548 871
e 551 843
e 551 839
e 551 602
e 552 786
e 553 738
e 554 592
e 554 663
e 557 930
e 558 576
e 560 789
e 561 910
e 561 775
e 561 665
e 561 927
e 561 839
e 564 817
e 564 680
e 565 700
e 565 956
e 565 891
e 565 818
e 565 982
e 565 944
e 565 752
e 566 931
e 566 895
e 567 592
e 568 842
e 569 921
e 569 672
e 570 594
e 570 575
e 571 923
e 571 580
e 571 572
e 571 750
e 571 694
e 574 911
e 574 997
e 574 964
e 575 986
e 576 791
e 576 684
e 577 798
e 577 615
e 577 637
e 580 640
e 580 846
e 582 655
e 582 725
e 583 709
e 584 877
e 586 964
e 586 762
e 586 743
e 586 758
e 587 842
e 587 616
e 588 833
e 588 845
e 591 762
e 591 878
e 592 606
e 592 848
e 593 633
e 593 855
e 593 694
e 593 659
e 594 725
e 595 811
e 595 949
e 596 708
e 596 606
e 597 967
e 597 602
e 599 851
e 599 849
e 601 612
e 601 991
e 601 805
e 601 742
e 602 952
e 603 924
e 603 636
e 603 984
e 604 984
e 605 722
e 607 886
e 607 851
e 608 884
e 609 800
e 609 787
e 609 908
e 609 828
e 609 666
e 610 850
e 610 905
e 611 787
e 611 649
e 611 969
e 612 871
e 613 998
e 613 813
e 613 703
e 615 918
e 615 691
e 615 990
e 618 996
e 618 915
e 620 730
e 620 819
e 620 786
e 621 828
e 621 629
e 621 747
e 622 911
e 622 680
e 622 683
e 622 652
e 624 652
e 625 841
e 625 693
e 627 813
e 628 969
e 628 676
e 628 943
e 629 694
e 630 842
e 634 635
e 635 863
e 636 864
e 636 727
e 638 825
e 639 787
e 639 786
e 639 939
e 646 799
e 647 843
e 648 687
e 649 825
e 649 997
e 650 706
e 650 963
e 650 835
e 652 973
e 652 991
e 653 837
e 653 911
e 653 762
e 655 687
e 655 952
e 657 954
e 659 785
e 661 983
e 661 920
e 662 747
e 662 889
e 663 825
e 665 898
e 665 816
e 665 766
e 665 987
e 665 915
e 665 955
e 668 789
e 670 872
e 670 918
e 672 893
e 672 905
e 673 751
e 674 841
e 675 849
e 675 726
e 675 823
e 675 973
e 678 838
e 678 775
e 679 738
e 680 801
e 680 824
e 682 817
e 683 834
e 683 715
e 683 942
e 683 727
e 685 819
e 685 824
e 686 847
e 687 916
e 687 696
e 687 823
e 688 942
e 688 868
e 688 732
e 690 823
e 690 699
e 691 741
e 692 843
e 692 867
e 693 758
e 699 762
e 699 831
e 703 956
e 706 947
e 707 831
e 708 741
e 708 736
e 709 885
e 711 829
e 711 823
e 715 978
e 717 751
e 719 935
e 721 867
e 722 931
e 722 813
e 724 949
e 725 983
e 726 929
e 726 781
e 727 924
e 727 987
e 729 925
e 729 868
e 730 822
e 731 879
e 732 958
e 732 946
e 732 983
e 732 871
e 734 762
e 734 808
e 736 846
e 736 743
e 738 833
e 738 795
e 738 759
e 740 799
e 741 943
e 741 971
e 741 837
e 742 935
e 742 912
e 742 757
e 743 801
e 743 841
e 743 944
e 743 955
e 747 800
e 749 897
e 750 895
e 750 947
e 753 927
e 753 910
e 754 855
e 755 908
e 757 943
e 757 821
e 758 911
e 758 875
e 759 842
e 760 842
e 760 919
e 762 998
e 762 975
e 764 991
e 764 939
e 765 996
e 766 828
e 766 808
e 766 800
e 766 823
e 767 862
e 772 969
e 772 817
e 772 971
e 775 879
e 777 982
e 777 925
e 777 923
e 778 802
e 778 862
e 779 907
e 780 817
e 780 791
e 780 969
e 780 903
e 780 847
e 783 893
e 783 789
e 786 822
e 788 974
e 790 844
e 795 822
e 799 899
e 801 835
e 803 951
e 803 927
e 803 990
e 804 910
e 804 974
e 805 905
e 805 808
e 807 973
e 811 985
e 818 962
e 821 962
e 821 863
e 824 990
e 825 850
e 828 925
e 829 978
e 831 967
e 831 903
e 831 945
e 833 838
e 834 939
e 837 945
e 838 983
e 842 958
e 843 953
e 845 990
e 846 933
e 849 884
e 850 963
e 850 871
e 851 978
e 855 971
e 858 884
e 858 955
e 860 949
e 863 987
e 868 985
e 868 975
e 875 974
e 875 993
e 875 923
e 878 920
e 878 967
e 880 997
e 880 963
e 880 932
e 885 931
e 885 921
e 886 952
e 886 908
e 886 911
e 887 989
e 891 927
e 891 952
e 898 989
e 899 997
e 901 982
e 910 966
e 911 941
e 912 945
e 917 955
e 917 920
e 918 994
e 928 947
e 929 969
e 930 937
e 936 963
e 936 982
e 936 996
e 939 940
e 939 949
e 939 948
e 948 962
e 951 958
e 960 995
e 977 985
